; DUP1 SWAP4 SWAP3 SWAP2 SWAP1 => SWAP3 SWAP2 SWAP1 DUP4
(set-option :produce-proofs true)
; 
(set-info :status unknown)
(declare-fun storage_t ((_ BitVec 256) (_ BitVec 256) (_ BitVec 256) (_ BitVec 256) Int (_ BitVec 256)) (_ BitVec 256))
(declare-fun storage_s ((_ BitVec 256) (_ BitVec 256) (_ BitVec 256) (_ BitVec 256) Int (_ BitVec 256)) (_ BitVec 256))
(declare-fun exc_halt_t (Int) Bool)
(declare-fun exc_halt_s (Int) Bool)
(declare-fun stack_t ((_ BitVec 256) (_ BitVec 256) (_ BitVec 256) (_ BitVec 256) Int (_ BitVec 6)) (_ BitVec 256))
(declare-fun stack_s ((_ BitVec 256) (_ BitVec 256) (_ BitVec 256) (_ BitVec 256) Int (_ BitVec 6)) (_ BitVec 256))
(declare-fun sc_t (Int) (_ BitVec 6))
(declare-fun sc_s (Int) (_ BitVec 6))
(declare-fun used_gas_t ((_ BitVec 256) (_ BitVec 256) (_ BitVec 256) (_ BitVec 256) Int) Int)
(declare-fun used_gas_s ((_ BitVec 256) (_ BitVec 256) (_ BitVec 256) (_ BitVec 256) Int) Int)
(assert
 (exists ((x_0 (_ BitVec 256)) (x_1 (_ BitVec 256)) (x_2 (_ BitVec 256)) (x_3 (_ BitVec 256)) )(let (($x6261 (forall ((w (_ BitVec 256)) )(let ((?x822 (storage_t x_0 x_1 x_2 x_3 4 w)))
 (let ((?x3900 (storage_s x_0 x_1 x_2 x_3 5 w)))
 (= ?x3900 ?x822))))
 ))
 (let (($x7854 (exc_halt_t 4)))
 (let (($x1862 (exc_halt_s 5)))
 (let (($x11605 (= $x1862 $x7854)))
 (let (($x10913 (forall ((n (_ BitVec 6)) )(let ((?x9497 (stack_t x_0 x_1 x_2 x_3 4 n)))
 (let ((?x9017 (stack_s x_0 x_1 x_2 x_3 5 n)))
 (let (($x11711 (= ?x9017 ?x9497)))
 (let ((?x7495 (sc_t 4)))
 (let (($x5667 (bvsle ?x7495 n)))
 (or $x5667 $x11711)))))))
 ))
 (let ((?x7495 (sc_t 4)))
 (let ((?x4319 (sc_s 5)))
 (let (($x11865 (= ?x4319 ?x7495)))
 (let ((?x11593 (used_gas_t x_0 x_1 x_2 x_3 0)))
 (let ((?x4303 (used_gas_s x_0 x_1 x_2 x_3 0)))
 (let (($x3707 (= ?x4303 ?x11593)))
 (let (($x1470 (forall ((w (_ BitVec 256)) )(let ((?x2103 (storage_t x_0 x_1 x_2 x_3 0 w)))
 (let ((?x6743 (storage_s x_0 x_1 x_2 x_3 0 w)))
 (= ?x6743 ?x2103))))
 ))
 (let (($x56 (exc_halt_t 0)))
 (let (($x57 (exc_halt_s 0)))
 (let (($x58 (= $x57 $x56)))
 (let (($x11377 (forall ((n (_ BitVec 6)) )(let ((?x63 (sc_t 0)))
 (let (($x11318 (bvsle ?x63 n)))
 (let ((?x3962 (stack_t x_0 x_1 x_2 x_3 0 n)))
 (let ((?x7340 (stack_s x_0 x_1 x_2 x_3 0 n)))
 (let (($x11107 (= ?x7340 ?x3962)))
 (or $x11107 $x11318)))))))
 ))
 (let ((?x63 (sc_t 0)))
 (let ((?x72 (sc_s 0)))
 (let (($x73 (= ?x72 ?x63)))
 (let (($x5682 (not (bvsle (_ bv0 6) (bvadd (_ bv60 6) (sc_t 3))))))
 (let (($x5429 (exc_halt_t 3)))
 (let (($x2894 (not (= ((_ extract 6 6) (bvadd (_ bv1 7) (concat (_ bv0 1) (sc_t 3)))) (_ bv0 1)))))
 (let (($x7833 (forall ((w (_ BitVec 256)) )(let ((?x5991 (storage_t x_0 x_1 x_2 x_3 3 w)))
 (let ((?x822 (storage_t x_0 x_1 x_2 x_3 4 w)))
 (= ?x822 ?x5991))))
 ))
 (let (($x4676 (forall ((n (_ BitVec 6)) )(let ((?x10526 (stack_t x_0 x_1 x_2 x_3 3 n)))
 (let ((?x9497 (stack_t x_0 x_1 x_2 x_3 4 n)))
 (let (($x7728 (= ?x9497 ?x10526)))
 (let ((?x7621 (sc_t 3)))
 (let ((?x7385 (bvadd (_ bv60 6) ?x7621)))
 (let (($x5303 (bvsle ?x7385 n)))
 (or $x5303 $x7728))))))))
 ))
 (let (($x806 (= ?x7495 (bvadd (_ bv1 6) (sc_t 3)))))
 (let ((?x6469 (used_gas_t x_0 x_1 x_2 x_3 4)))
 (let ((?x7621 (sc_t 3)))
 (let ((?x9251 (bvadd (_ bv63 6) ?x7621)))
 (let ((?x4849 (stack_t x_0 x_1 x_2 x_3 3 ?x9251)))
 (let ((?x150 (bvadd (_ bv62 6) ?x7621)))
 (let ((?x10881 (stack_t x_0 x_1 x_2 x_3 3 ?x150)))
 (let ((?x11507 (bvadd (_ bv61 6) ?x7621)))
 (let ((?x461 (stack_t x_0 x_1 x_2 x_3 3 ?x11507)))
 (let ((?x7385 (bvadd (_ bv60 6) ?x7621)))
 (let ((?x5771 (stack_t x_0 x_1 x_2 x_3 3 ?x7385)))
 (let (($x11928 (= $x5429 (or (exc_halt_t 2) (not (bvsle (_ bv0 6) (bvadd (_ bv62 6) (sc_t 2))))))))
 (let (($x2986 (forall ((w (_ BitVec 256)) )(let ((?x4361 (storage_t x_0 x_1 x_2 x_3 2 w)))
 (let ((?x5991 (storage_t x_0 x_1 x_2 x_3 3 w)))
 (= ?x5991 ?x4361))))
 ))
 (let (($x9978 (forall ((n (_ BitVec 6)) )(let ((?x10979 (stack_t x_0 x_1 x_2 x_3 2 n)))
 (let ((?x10526 (stack_t x_0 x_1 x_2 x_3 3 n)))
 (let (($x11080 (= ?x10526 ?x10979)))
 (or (bvsle (bvadd (_ bv62 6) (sc_t 2)) n) $x11080)))))
 ))
 (let ((?x8890 (sc_t 2)))
 (let (($x5385 (= ?x7621 ?x8890)))
 (let ((?x9307 (used_gas_t x_0 x_1 x_2 x_3 3)))
 (let (($x7262 (= ?x9307 (+ 3 (used_gas_t x_0 x_1 x_2 x_3 2)))))
 (let (($x7505 (exc_halt_t 2)))
 (let (($x698 (= $x7505 (or (exc_halt_t 1) (not (bvsle (_ bv0 6) (bvadd (_ bv61 6) (sc_t 1))))))))
 (let (($x10211 (forall ((w (_ BitVec 256)) )(let ((?x548 (storage_t x_0 x_1 x_2 x_3 1 w)))
 (let ((?x4361 (storage_t x_0 x_1 x_2 x_3 2 w)))
 (= ?x4361 ?x548))))
 ))
 (let (($x969 (forall ((n (_ BitVec 6)) )(let ((?x1280 (stack_t x_0 x_1 x_2 x_3 1 n)))
 (let ((?x10979 (stack_t x_0 x_1 x_2 x_3 2 n)))
 (let (($x10875 (= ?x10979 ?x1280)))
 (let ((?x4554 (sc_t 1)))
 (let ((?x338 (bvadd (_ bv61 6) ?x4554)))
 (let (($x5294 (bvsle ?x338 n)))
 (or $x5294 $x10875))))))))
 ))
 (let ((?x4554 (sc_t 1)))
 (let (($x6914 (= ?x8890 ?x4554)))
 (let ((?x10707 (used_gas_t x_0 x_1 x_2 x_3 2)))
 (let (($x2064 (= ?x10707 (+ 3 (used_gas_t x_0 x_1 x_2 x_3 1)))))
 (let ((?x2315 (bvadd (_ bv62 6) ?x4554)))
 (let ((?x3000 (stack_t x_0 x_1 x_2 x_3 1 ?x2315)))
 (let ((?x4746 (bvadd (_ bv62 6) ?x8890)))
 (let ((?x6780 (stack_t x_0 x_1 x_2 x_3 2 ?x4746)))
 (let (($x9135 (= ?x6780 ?x3000)))
 (let ((?x6802 (bvadd (_ bv63 6) ?x4554)))
 (let ((?x11471 (stack_t x_0 x_1 x_2 x_3 1 ?x6802)))
 (let ((?x4371 (bvadd (_ bv61 6) ?x8890)))
 (let ((?x7185 (stack_t x_0 x_1 x_2 x_3 2 ?x4371)))
 (let ((?x338 (bvadd (_ bv61 6) ?x4554)))
 (let ((?x9071 (stack_t x_0 x_1 x_2 x_3 1 ?x338)))
 (let ((?x6760 (bvadd (_ bv63 6) ?x8890)))
 (let ((?x11948 (stack_t x_0 x_1 x_2 x_3 2 ?x6760)))
 (let (($x2703 (forall ((w (_ BitVec 256)) )(let ((?x2103 (storage_t x_0 x_1 x_2 x_3 0 w)))
 (let ((?x548 (storage_t x_0 x_1 x_2 x_3 1 w)))
 (= ?x548 ?x2103))))
 ))
 (let (($x8572 (forall ((n (_ BitVec 6)) )(let ((?x3962 (stack_t x_0 x_1 x_2 x_3 0 n)))
 (let ((?x1280 (stack_t x_0 x_1 x_2 x_3 1 n)))
 (let (($x2920 (= ?x1280 ?x3962)))
 (or (bvsle (bvadd (_ bv60 6) (sc_t 0)) n) $x2920)))))
 ))
 (let (($x2065 (= ?x4554 ?x63)))
 (let ((?x7996 (used_gas_t x_0 x_1 x_2 x_3 1)))
 (let (($x3111 (= ?x7996 (+ 3 ?x11593))))
 (let ((?x3574 (bvadd (_ bv63 6) ?x63)))
 (let ((?x10845 (stack_t x_0 x_1 x_2 x_3 0 ?x3574)))
 (let ((?x7946 (bvadd (_ bv60 6) ?x4554)))
 (let ((?x3629 (stack_t x_0 x_1 x_2 x_3 1 ?x7946)))
 (let ((?x10848 (bvadd (_ bv60 6) ?x63)))
 (let ((?x4482 (stack_t x_0 x_1 x_2 x_3 0 ?x10848)))
 (let (($x6313 (= ?x11471 ?x4482)))
 (let (($x9525 (= $x1862 (or (exc_halt_s 4) (not (bvsle (_ bv0 6) (bvadd (_ bv62 6) (sc_s 4))))))))
 (let (($x4902 (forall ((w (_ BitVec 256)) )(let ((?x9821 (storage_s x_0 x_1 x_2 x_3 4 w)))
 (let ((?x3900 (storage_s x_0 x_1 x_2 x_3 5 w)))
 (= ?x3900 ?x9821))))
 ))
 (let (($x10499 (forall ((n (_ BitVec 6)) )(let ((?x9550 (stack_s x_0 x_1 x_2 x_3 4 n)))
 (let ((?x9017 (stack_s x_0 x_1 x_2 x_3 5 n)))
 (let (($x10835 (= ?x9017 ?x9550)))
 (let ((?x9433 (sc_s 4)))
 (let ((?x11364 (bvadd (_ bv62 6) ?x9433)))
 (let (($x6445 (bvsle ?x11364 n)))
 (or $x6445 $x10835))))))))
 ))
 (let ((?x9433 (sc_s 4)))
 (let (($x1752 (= ?x4319 ?x9433)))
 (let ((?x3383 (used_gas_s x_0 x_1 x_2 x_3 5)))
 (let (($x2218 (= ?x3383 (+ 3 (used_gas_s x_0 x_1 x_2 x_3 4)))))
 (let ((?x3395 (bvadd (_ bv63 6) ?x9433)))
 (let ((?x11385 (stack_s x_0 x_1 x_2 x_3 4 ?x3395)))
 (let ((?x3570 (bvadd (_ bv62 6) ?x4319)))
 (let ((?x3994 (stack_s x_0 x_1 x_2 x_3 5 ?x3570)))
 (let (($x6415 (= ?x3994 ?x11385)))
 (let ((?x11364 (bvadd (_ bv62 6) ?x9433)))
 (let ((?x7037 (stack_s x_0 x_1 x_2 x_3 4 ?x11364)))
 (let ((?x9002 (bvadd (_ bv63 6) ?x4319)))
 (let ((?x3918 (stack_s x_0 x_1 x_2 x_3 5 ?x9002)))
 (let (($x8676 (= ?x3918 ?x7037)))
 (let (($x9175 (exc_halt_s 4)))
 (let (($x6246 (= $x9175 (or (exc_halt_s 3) (not (bvsle (_ bv0 6) (bvadd (_ bv61 6) (sc_s 3))))))))
 (let (($x400 (forall ((w (_ BitVec 256)) )(let ((?x10424 (storage_s x_0 x_1 x_2 x_3 3 w)))
 (let ((?x9821 (storage_s x_0 x_1 x_2 x_3 4 w)))
 (= ?x9821 ?x10424))))
 ))
 (let (($x8815 (forall ((n (_ BitVec 6)) )(let ((?x3575 (stack_s x_0 x_1 x_2 x_3 3 n)))
 (let ((?x9550 (stack_s x_0 x_1 x_2 x_3 4 n)))
 (let (($x10474 (= ?x9550 ?x3575)))
 (or (bvsle (bvadd (_ bv61 6) (sc_s 3)) n) $x10474)))))
 ))
 (let ((?x3851 (sc_s 3)))
 (let (($x9342 (= ?x9433 ?x3851)))
 (let ((?x7118 (used_gas_s x_0 x_1 x_2 x_3 4)))
 (let (($x2698 (= ?x7118 (+ 3 (used_gas_s x_0 x_1 x_2 x_3 3)))))
 (let ((?x8089 (bvadd (_ bv62 6) ?x3851)))
 (let ((?x11659 (stack_s x_0 x_1 x_2 x_3 3 ?x8089)))
 (let (($x10108 (= ?x7037 ?x11659)))
 (let ((?x1738 (bvadd (_ bv63 6) ?x3851)))
 (let ((?x7409 (stack_s x_0 x_1 x_2 x_3 3 ?x1738)))
 (let ((?x5052 (bvadd (_ bv61 6) ?x9433)))
 (let ((?x11974 (stack_s x_0 x_1 x_2 x_3 4 ?x5052)))
 (let (($x2380 (= ?x11974 ?x7409)))
 (let ((?x2726 (bvadd (_ bv61 6) ?x3851)))
 (let ((?x6239 (stack_s x_0 x_1 x_2 x_3 3 ?x2726)))
 (let (($x1000 (= ?x11385 ?x6239)))
 (let (($x8103 (exc_halt_s 3)))
 (let (($x8532 (= $x8103 (or (exc_halt_s 2) (not (bvsle (_ bv0 6) (bvadd (_ bv60 6) (sc_s 2))))))))
 (let (($x5352 (forall ((w (_ BitVec 256)) )(let ((?x1967 (storage_s x_0 x_1 x_2 x_3 2 w)))
 (let ((?x10424 (storage_s x_0 x_1 x_2 x_3 3 w)))
 (= ?x10424 ?x1967))))
 ))
 (let (($x1874 (forall ((n (_ BitVec 6)) )(let ((?x5322 (stack_s x_0 x_1 x_2 x_3 2 n)))
 (let ((?x3575 (stack_s x_0 x_1 x_2 x_3 3 n)))
 (let (($x2854 (= ?x3575 ?x5322)))
 (or (bvsle (bvadd (_ bv60 6) (sc_s 2)) n) $x2854)))))
 ))
 (let ((?x2272 (sc_s 2)))
 (let (($x5381 (= ?x3851 ?x2272)))
 (let ((?x10754 (used_gas_s x_0 x_1 x_2 x_3 3)))
 (let (($x2862 (= ?x10754 (+ 3 (used_gas_s x_0 x_1 x_2 x_3 2)))))
 (let ((?x9000 (bvadd (_ bv63 6) ?x2272)))
 (let ((?x10558 (stack_s x_0 x_1 x_2 x_3 2 ?x9000)))
 (let ((?x9289 (bvadd (_ bv60 6) ?x3851)))
 (let ((?x2875 (stack_s x_0 x_1 x_2 x_3 3 ?x9289)))
 (let (($x10052 (exc_halt_s 2)))
 (let (($x4321 (= $x10052 (or (exc_halt_s 1) (not (bvsle (_ bv0 6) (bvadd (_ bv59 6) (sc_s 1))))))))
 (let (($x7373 (forall ((w (_ BitVec 256)) )(let ((?x4803 (storage_s x_0 x_1 x_2 x_3 1 w)))
 (let ((?x1967 (storage_s x_0 x_1 x_2 x_3 2 w)))
 (= ?x1967 ?x4803))))
 ))
 (let (($x9863 (forall ((n (_ BitVec 6)) )(let ((?x6880 (stack_s x_0 x_1 x_2 x_3 1 n)))
 (let ((?x5322 (stack_s x_0 x_1 x_2 x_3 2 n)))
 (let (($x960 (= ?x5322 ?x6880)))
 (or $x960 (bvsle (bvadd (_ bv59 6) (sc_s 1)) n))))))
 ))
 (let ((?x154 (sc_s 1)))
 (let (($x5959 (= ?x2272 ?x154)))
 (let ((?x2941 (used_gas_s x_0 x_1 x_2 x_3 2)))
 (let (($x8521 (= ?x2941 (+ 3 (used_gas_s x_0 x_1 x_2 x_3 1)))))
 (let ((?x8244 (bvadd (_ bv62 6) ?x154)))
 (let ((?x1790 (stack_s x_0 x_1 x_2 x_3 1 ?x8244)))
 (let ((?x7947 (bvadd (_ bv62 6) ?x2272)))
 (let ((?x260 (stack_s x_0 x_1 x_2 x_3 2 ?x7947)))
 (let ((?x7168 (bvadd (_ bv61 6) ?x154)))
 (let ((?x4690 (stack_s x_0 x_1 x_2 x_3 1 ?x7168)))
 (let ((?x3143 (bvadd (_ bv61 6) ?x2272)))
 (let ((?x6038 (stack_s x_0 x_1 x_2 x_3 2 ?x3143)))
 (let ((?x10182 (bvadd (_ bv60 6) ?x154)))
 (let ((?x5203 (stack_s x_0 x_1 x_2 x_3 1 ?x10182)))
 (let ((?x226 (bvadd (_ bv60 6) ?x2272)))
 (let ((?x6433 (stack_s x_0 x_1 x_2 x_3 2 ?x226)))
 (let ((?x1791 (bvadd (_ bv63 6) ?x154)))
 (let ((?x11275 (stack_s x_0 x_1 x_2 x_3 1 ?x1791)))
 (let (($x1465 (not (= ((_ extract 6 6) (bvadd (_ bv1 7) (concat (_ bv0 1) ?x72))) (_ bv0 1)))))
 (let (($x8780 (exc_halt_s 1)))
 (let (($x3189 (= $x8780 (or $x57 $x1465 (not (bvsle (_ bv0 6) (bvadd (_ bv63 6) ?x72)))))))
 (let (($x1118 (forall ((w (_ BitVec 256)) )(let ((?x6743 (storage_s x_0 x_1 x_2 x_3 0 w)))
 (let ((?x4803 (storage_s x_0 x_1 x_2 x_3 1 w)))
 (= ?x4803 ?x6743))))
 ))
 (let (($x2433 (forall ((n (_ BitVec 6)) )(let ((?x7340 (stack_s x_0 x_1 x_2 x_3 0 n)))
 (let ((?x6880 (stack_s x_0 x_1 x_2 x_3 1 n)))
 (let (($x7806 (= ?x6880 ?x7340)))
 (let ((?x72 (sc_s 0)))
 (let ((?x10288 (bvadd (_ bv63 6) ?x72)))
 (let (($x6497 (bvsle ?x10288 n)))
 (or $x6497 $x7806))))))))
 ))
 (let (($x5475 (= ?x154 (bvadd (_ bv1 6) ?x72))))
 (let ((?x2119 (used_gas_s x_0 x_1 x_2 x_3 1)))
 (let (($x396 (= ?x2119 (+ 3 ?x4303))))
 (let ((?x10288 (bvadd (_ bv63 6) ?x72)))
 (let ((?x11518 (stack_s x_0 x_1 x_2 x_3 0 ?x10288)))
 (let (($x1441 (= (stack_s x_0 x_1 x_2 x_3 1 ?x10288) ?x11518)))
 (let (($x3587 (= ?x11275 ?x11518)))
 (let (($x2229 (forall ((w (_ BitVec 256)) )(let ((?x6743 (storage_s x_0 x_1 x_2 x_3 0 w)))
 (= ?x6743 (_ bv0 256))))
 ))
 (let (($x1717 (= ?x4303 0)))
 (let (($x3971 (not $x57)))
 (let (($x3572 (= (stack_s x_0 x_1 x_2 x_3 0 (_ bv3 6)) x_3)))
 (let (($x11059 (= (stack_s x_0 x_1 x_2 x_3 0 (_ bv2 6)) x_2)))
 (let (($x9341 (= (stack_s x_0 x_1 x_2 x_3 0 (_ bv1 6)) x_1)))
 (let (($x10662 (= (stack_s x_0 x_1 x_2 x_3 0 (_ bv0 6)) x_0)))
 (let (($x11523 (= ?x72 (_ bv4 6))))
 (and $x11523 $x10662 $x9341 $x11059 $x3572 $x3971 $x1717 $x2229 $x3587 $x1441 $x396 $x5475 $x2433 $x1118 $x3189 (= ?x10558 (stack_s x_0 x_1 x_2 x_3 1 (bvadd (_ bv59 6) ?x154))) (= (stack_s x_0 x_1 x_2 x_3 2 (bvadd (_ bv59 6) ?x2272)) ?x11275) (= ?x6433 ?x5203) (= ?x6038 ?x4690) (= ?x260 ?x1790) $x8521 $x5959 $x9863 $x7373 $x4321 (= ?x7409 ?x6433) (= ?x2875 ?x10558) (= ?x6239 ?x6038) (= ?x11659 ?x260) $x2862 $x5381 $x1874 $x5352 $x8532 $x1000 $x2380 $x10108 $x2698 $x9342 $x8815 $x400 $x6246 $x8676 $x6415 $x2218 $x1752 $x10499 $x4902 $x9525 $x6313 (= ?x3629 ?x10845) (= ?x9071 (stack_t x_0 x_1 x_2 x_3 0 (bvadd (_ bv61 6) ?x63))) (= ?x3000 (stack_t x_0 x_1 x_2 x_3 0 (bvadd (_ bv62 6) ?x63))) $x3111 $x2065 $x8572 $x2703 (= (exc_halt_t 1) (or $x56 (not (bvsle (_ bv0 6) ?x10848)))) (= ?x11948 ?x9071) (= ?x7185 ?x11471) $x9135 $x2064 $x6914 $x969 $x10211 $x698 (= ?x4849 ?x6780) (= ?x10881 ?x11948) $x7262 $x5385 $x9978 $x2986 $x11928 (= (stack_t x_0 x_1 x_2 x_3 4 (bvadd (_ bv63 6) ?x7495)) ?x5771) (= (stack_t x_0 x_1 x_2 x_3 4 ?x7385) ?x5771) (= (stack_t x_0 x_1 x_2 x_3 4 ?x11507) ?x461) (= (stack_t x_0 x_1 x_2 x_3 4 ?x150) ?x10881) (= (stack_t x_0 x_1 x_2 x_3 4 ?x9251) ?x4849) (= ?x6469 (+ 3 ?x9307)) $x806 $x4676 $x7833 (= $x7854 (or $x2894 $x5429 $x5682)) $x73 $x11377 $x58 $x1470 $x3707 (not (and $x11865 $x10913 $x11605 $x6261)))))))))))))))))))))))))))))))))))))))))))))))))))))))))))))))))))))))))))))))))))))))))))))))))))))))))))))))))))))))))))))))))))))))))))))))))))))))))))))))))))))))))
 )
(check-sat)
(get-proof)
